
******************************************************************************
This program contains Ipopt, a library for large-scale nonlinear optimization.
 Ipopt is released as open source code under the Eclipse Public License (EPL).
         For more information visit https://github.com/coin-or/Ipopt
******************************************************************************

This is Ipopt version 3.14.19, running with linear solver MUMPS 5.8.1.

Number of nonzeros in equality constraint Jacobian...:     2204
Number of nonzeros in inequality constraint Jacobian.:        0
Number of nonzeros in Lagrangian Hessian.............:      525

Total number of variables............................:      647
                     variables with only lower bounds:        0
                variables with lower and upper bounds:      232
                     variables with only upper bounds:        0
Total number of equality constraints.................:      639
Total number of inequality constraints...............:        0
        inequality constraints with only lower bounds:        0
   inequality constraints with lower and upper bounds:        0
        inequality constraints with only upper bounds:        0

iter    objective    inf_pr   inf_du lg(mu)  ||d||  lg(rg) alpha_du alpha_pr  ls
   0  4.9463282e+00 9.90e+01 5.02e-05  -1.0 0.00e+00    -  0.00e+00 0.00e+00   0
   1  4.9768673e+00 2.40e+01 1.94e+01  -1.0 1.00e+02    -  4.68e-02 9.90e-01h  1
   2  4.9641219e+00 5.18e+00 4.42e-01  -1.0 1.61e+01    -  9.32e-01 1.00e+00h  1
   3  4.9466172e+00 5.99e+00 7.51e-02  -1.0 3.72e+00    -  9.90e-01 1.00e+00h  1
   4  4.9476946e+00 3.23e+00 1.03e-03  -1.0 8.76e+00    -  1.00e+00 1.00e+00h  1
   5  4.9469280e+00 2.79e-01 8.93e-05  -1.0 2.06e+00    -  1.00e+00 1.00e+00h  1
   6  4.9463862e+00 9.65e-02 2.05e-04  -1.7 5.15e-01    -  1.00e+00 1.00e+00h  1
   7  4.9463283e+00 3.88e-02 2.69e-05  -2.5 5.35e-01    -  1.00e+00 1.00e+00h  1
   8  4.9463274e+00 1.31e-04 1.57e-08  -2.5 6.53e-02    -  1.00e+00 1.00e+00h  1
   9  4.9463268e+00 4.71e-04 3.53e-07  -3.8 5.81e-02    -  1.00e+00 1.00e+00h  1
iter    objective    inf_pr   inf_du lg(mu)  ||d||  lg(rg) alpha_du alpha_pr  ls
  10  4.9463267e+00 2.06e-06 1.09e-04  -5.7 4.20e-03    -  9.90e-01 1.00e+00h  1
  11  4.9463062e+00 1.91e-07 1.25e-05  -5.7 5.46e-01    -  7.37e-01 1.00e+00h  1
  12  4.9462997e+00 4.07e-09 1.68e-05  -8.6 1.69e-01    -  8.00e-01 1.00e+00h  1
  13  4.9462974e+00 2.62e-09 9.48e-07  -8.6 7.21e-02    -  9.82e-01 9.58e-01h  1
  14  4.9462974e+00 4.30e-12 1.73e-14  -8.6 2.26e-04    -  1.00e+00 1.00e+00f  1

Number of Iterations....: 14

                                   (scaled)                 (unscaled)
Objective...............:   4.9462973716908580e+00    4.9462973716908580e+00
Dual infeasibility......:   1.7263968032921184e-14    1.7263968032921184e-14
Constraint violation....:   4.3014480866911831e-12    4.3014480866911831e-12
Variable bound violation:   0.0000000000000000e+00    0.0000000000000000e+00
Complementarity.........:   2.7093903049684198e-09    2.7093903049684198e-09
Overall NLP error.......:   2.7093903049684198e-09    2.7093903049684198e-09


Number of objective function evaluations             = 15
Number of objective gradient evaluations             = 15
Number of equality constraint evaluations            = 15
Number of inequality constraint evaluations          = 0
Number of equality constraint Jacobian evaluations   = 15
Number of inequality constraint Jacobian evaluations = 0
Number of Lagrangian Hessian evaluations             = 14
Total seconds in IPOPT                               = 0.125

EXIT: Optimal Solution Found.
